c Modular CNF with 4 modules
c Generated CNF instance
p cnf 60 960
11 2 1 0
11 2 -1 0
11 -2 1 0
-11 2 1 0
12 5 4 0
12 5 -4 0
12 -5 4 0
-12 5 4 0
4 3 12 0
4 3 -12 0
4 -3 12 0
-4 3 12 0
2 11 12 0
2 11 -12 0
2 -11 12 0
-2 11 12 0
15 9 2 0
15 9 -2 0
15 -9 2 0
-15 9 2 0
10 7 1 0
10 7 -1 0
10 -7 1 0
-10 7 1 0
1 2 4 0
1 2 -4 0
1 -2 4 0
-1 2 4 0
4 9 10 0
4 9 -10 0
4 -9 10 0
-4 9 10 0
1 9 4 0
1 9 -4 0
1 -9 4 0
-1 9 4 0
12 11 15 0
12 11 -15 0
12 -11 15 0
-12 11 15 0
9 7 4 0
9 7 -4 0
9 -7 4 0
-9 7 4 0
8 10 5 0
8 10 -5 0
8 -10 5 0
-8 10 5 0
13 14 1 0
13 14 -1 0
13 -14 1 0
-13 14 1 0
13 15 3 0
13 15 -3 0
13 -15 3 0
-13 15 3 0
12 7 6 0
12 7 -6 0
12 -7 6 0
-12 7 6 0
5 3 4 0
5 3 -4 0
5 -3 4 0
-5 3 4 0
13 6 2 0
13 6 -2 0
13 -6 2 0
-13 6 2 0
2 7 15 0
2 7 -15 0
2 -7 15 0
-2 7 15 0
6 14 15 0
6 14 -15 0
6 -14 15 0
-6 14 15 0
10 5 13 0
10 5 -13 0
10 -5 13 0
-10 5 13 0
1 12 8 0
1 12 -8 0
1 -12 8 0
-1 12 8 0
9 2 7 0
9 2 -7 0
9 -2 7 0
-9 2 7 0
2 9 5 0
2 9 -5 0
2 -9 5 0
-2 9 5 0
14 11 10 0
14 11 -10 0
14 -11 10 0
-14 11 10 0
15 14 6 0
15 14 -6 0
15 -14 6 0
-15 14 6 0
10 4 12 0
10 4 -12 0
10 -4 12 0
-10 4 12 0
2 1 11 0
2 1 -11 0
2 -1 11 0
-2 1 11 0
4 13 5 0
4 13 -5 0
4 -13 5 0
-4 13 5 0
2 14 4 0
2 14 -4 0
2 -14 4 0
-2 14 4 0
14 2 7 0
14 2 -7 0
14 -2 7 0
-14 2 7 0
5 8 11 0
5 8 -11 0
5 -8 11 0
-5 8 11 0
14 6 3 0
14 6 -3 0
14 -6 3 0
-14 6 3 0
6 15 4 0
6 15 -4 0
6 -15 4 0
-6 15 4 0
11 5 12 0
11 5 -12 0
11 -5 12 0
-11 5 12 0
15 11 14 0
15 11 -14 0
15 -11 14 0
-15 11 14 0
2 10 11 0
2 10 -11 0
2 -10 11 0
-2 10 11 0
3 9 12 0
3 9 -12 0
3 -9 12 0
-3 9 12 0
4 3 8 0
4 3 -8 0
4 -3 8 0
-4 3 8 0
7 5 11 0
7 5 -11 0
7 -5 11 0
-7 5 11 0
12 9 4 0
12 9 -4 0
12 -9 4 0
-12 9 4 0
11 6 13 0
11 6 -13 0
11 -6 13 0
-11 6 13 0
13 1 4 0
13 1 -4 0
13 -1 4 0
-13 1 4 0
14 1 13 0
14 1 -13 0
14 -1 13 0
-14 1 13 0
6 7 5 0
6 7 -5 0
6 -7 5 0
-6 7 5 0
2 4 10 0
2 4 -10 0
2 -4 10 0
-2 4 10 0
15 12 6 0
15 12 -6 0
15 -12 6 0
-15 12 6 0
4 11 8 0
4 11 -8 0
4 -11 8 0
-4 11 8 0
7 11 8 0
7 11 -8 0
7 -11 8 0
-7 11 8 0
3 5 15 0
3 5 -15 0
3 -5 15 0
-3 5 15 0
4 12 9 0
4 12 -9 0
4 -12 9 0
-4 12 9 0
9 5 12 0
9 5 -12 0
9 -5 12 0
-9 5 12 0
10 7 15 0
10 7 -15 0
10 -7 15 0
-10 7 15 0
7 6 4 0
7 6 -4 0
7 -6 4 0
-7 6 4 0
3 9 8 0
3 9 -8 0
3 -9 8 0
-3 9 8 0
2 13 1 0
2 13 -1 0
2 -13 1 0
-2 13 1 0
14 2 3 0
14 2 -3 0
14 -2 3 0
-14 2 3 0
11 3 13 0
11 3 -13 0
11 -3 13 0
-11 3 13 0
11 7 10 0
11 7 -10 0
11 -7 10 0
-11 7 10 0
2 7 14 0
2 7 -14 0
2 -7 14 0
-2 7 14 0
10 8 9 0
10 8 -9 0
10 -8 9 0
-10 8 9 0
20 24 16 0
20 24 -16 0
20 -24 16 0
-20 24 16 0
26 27 17 0
26 27 -17 0
26 -27 17 0
-26 27 17 0
26 24 28 0
26 24 -28 0
26 -24 28 0
-26 24 28 0
20 28 26 0
20 28 -26 0
20 -28 26 0
-20 28 26 0
21 17 20 0
21 17 -20 0
21 -17 20 0
-21 17 20 0
22 18 23 0
22 18 -23 0
22 -18 23 0
-22 18 23 0
16 27 29 0
16 27 -29 0
16 -27 29 0
-16 27 29 0
20 24 28 0
20 24 -28 0
20 -24 28 0
-20 24 28 0
18 24 17 0
18 24 -17 0
18 -24 17 0
-18 24 17 0
29 26 20 0
29 26 -20 0
29 -26 20 0
-29 26 20 0
29 26 24 0
29 26 -24 0
29 -26 24 0
-29 26 24 0
25 19 18 0
25 19 -18 0
25 -19 18 0
-25 19 18 0
21 28 18 0
21 28 -18 0
21 -28 18 0
-21 28 18 0
24 28 30 0
24 28 -30 0
24 -28 30 0
-24 28 30 0
30 16 25 0
30 16 -25 0
30 -16 25 0
-30 16 25 0
21 23 16 0
21 23 -16 0
21 -23 16 0
-21 23 16 0
17 21 28 0
17 21 -28 0
17 -21 28 0
-17 21 28 0
20 19 16 0
20 19 -16 0
20 -19 16 0
-20 19 16 0
19 25 17 0
19 25 -17 0
19 -25 17 0
-19 25 17 0
17 27 23 0
17 27 -23 0
17 -27 23 0
-17 27 23 0
29 17 28 0
29 17 -28 0
29 -17 28 0
-29 17 28 0
24 28 18 0
24 28 -18 0
24 -28 18 0
-24 28 18 0
18 26 23 0
18 26 -23 0
18 -26 23 0
-18 26 23 0
24 18 20 0
24 18 -20 0
24 -18 20 0
-24 18 20 0
24 29 25 0
24 29 -25 0
24 -29 25 0
-24 29 25 0
22 19 24 0
22 19 -24 0
22 -19 24 0
-22 19 24 0
28 27 29 0
28 27 -29 0
28 -27 29 0
-28 27 29 0
19 27 20 0
19 27 -20 0
19 -27 20 0
-19 27 20 0
22 26 29 0
22 26 -29 0
22 -26 29 0
-22 26 29 0
21 23 24 0
21 23 -24 0
21 -23 24 0
-21 23 24 0
23 17 19 0
23 17 -19 0
23 -17 19 0
-23 17 19 0
19 17 21 0
19 17 -21 0
19 -17 21 0
-19 17 21 0
16 25 24 0
16 25 -24 0
16 -25 24 0
-16 25 24 0
19 25 30 0
19 25 -30 0
19 -25 30 0
-19 25 30 0
16 17 27 0
16 17 -27 0
16 -17 27 0
-16 17 27 0
26 16 19 0
26 16 -19 0
26 -16 19 0
-26 16 19 0
17 16 21 0
17 16 -21 0
17 -16 21 0
-17 16 21 0
17 24 19 0
17 24 -19 0
17 -24 19 0
-17 24 19 0
20 26 23 0
20 26 -23 0
20 -26 23 0
-20 26 23 0
19 24 18 0
19 24 -18 0
19 -24 18 0
-19 24 18 0
27 25 29 0
27 25 -29 0
27 -25 29 0
-27 25 29 0
23 19 28 0
23 19 -28 0
23 -19 28 0
-23 19 28 0
23 28 22 0
23 28 -22 0
23 -28 22 0
-23 28 22 0
19 17 29 0
19 17 -29 0
19 -17 29 0
-19 17 29 0
26 22 21 0
26 22 -21 0
26 -22 21 0
-26 22 21 0
22 30 23 0
22 30 -23 0
22 -30 23 0
-22 30 23 0
29 27 16 0
29 27 -16 0
29 -27 16 0
-29 27 16 0
26 30 29 0
26 30 -29 0
26 -30 29 0
-26 30 29 0
17 16 22 0
17 16 -22 0
17 -16 22 0
-17 16 22 0
27 21 28 0
27 21 -28 0
27 -21 28 0
-27 21 28 0
29 17 19 0
29 17 -19 0
29 -17 19 0
-29 17 19 0
19 30 24 0
19 30 -24 0
19 -30 24 0
-19 30 24 0
23 18 22 0
23 18 -22 0
23 -18 22 0
-23 18 22 0
18 20 23 0
18 20 -23 0
18 -20 23 0
-18 20 23 0
19 29 17 0
19 29 -17 0
19 -29 17 0
-19 29 17 0
23 28 24 0
23 28 -24 0
23 -28 24 0
-23 28 24 0
17 16 26 0
17 16 -26 0
17 -16 26 0
-17 16 26 0
24 29 16 0
24 29 -16 0
24 -29 16 0
-24 29 16 0
17 28 19 0
17 28 -19 0
17 -28 19 0
-17 28 19 0
18 22 23 0
18 22 -23 0
18 -22 23 0
-18 22 23 0
38 34 37 0
38 34 -37 0
38 -34 37 0
-38 34 37 0
45 31 33 0
45 31 -33 0
45 -31 33 0
-45 31 33 0
37 31 45 0
37 31 -45 0
37 -31 45 0
-37 31 45 0
35 43 44 0
35 43 -44 0
35 -43 44 0
-35 43 44 0
38 35 37 0
38 35 -37 0
38 -35 37 0
-38 35 37 0
42 45 43 0
42 45 -43 0
42 -45 43 0
-42 45 43 0
39 41 42 0
39 41 -42 0
39 -41 42 0
-39 41 42 0
38 33 34 0
38 33 -34 0
38 -33 34 0
-38 33 34 0
35 34 31 0
35 34 -31 0
35 -34 31 0
-35 34 31 0
40 42 39 0
40 42 -39 0
40 -42 39 0
-40 42 39 0
31 42 36 0
31 42 -36 0
31 -42 36 0
-31 42 36 0
31 45 40 0
31 45 -40 0
31 -45 40 0
-31 45 40 0
38 39 44 0
38 39 -44 0
38 -39 44 0
-38 39 44 0
33 31 39 0
33 31 -39 0
33 -31 39 0
-33 31 39 0
32 44 33 0
32 44 -33 0
32 -44 33 0
-32 44 33 0
32 40 45 0
32 40 -45 0
32 -40 45 0
-32 40 45 0
41 44 34 0
41 44 -34 0
41 -44 34 0
-41 44 34 0
37 32 40 0
37 32 -40 0
37 -32 40 0
-37 32 40 0
34 40 44 0
34 40 -44 0
34 -40 44 0
-34 40 44 0
31 40 32 0
31 40 -32 0
31 -40 32 0
-31 40 32 0
37 41 40 0
37 41 -40 0
37 -41 40 0
-37 41 40 0
40 39 36 0
40 39 -36 0
40 -39 36 0
-40 39 36 0
45 35 34 0
45 35 -34 0
45 -35 34 0
-45 35 34 0
41 42 36 0
41 42 -36 0
41 -42 36 0
-41 42 36 0
34 35 37 0
34 35 -37 0
34 -35 37 0
-34 35 37 0
33 41 44 0
33 41 -44 0
33 -41 44 0
-33 41 44 0
35 38 36 0
35 38 -36 0
35 -38 36 0
-35 38 36 0
45 43 32 0
45 43 -32 0
45 -43 32 0
-45 43 32 0
31 38 40 0
31 38 -40 0
31 -38 40 0
-31 38 40 0
40 32 44 0
40 32 -44 0
40 -32 44 0
-40 32 44 0
39 34 45 0
39 34 -45 0
39 -34 45 0
-39 34 45 0
35 33 36 0
35 33 -36 0
35 -33 36 0
-35 33 36 0
45 32 34 0
45 32 -34 0
45 -32 34 0
-45 32 34 0
36 35 33 0
36 35 -33 0
36 -35 33 0
-36 35 33 0
38 44 39 0
38 44 -39 0
38 -44 39 0
-38 44 39 0
42 35 40 0
42 35 -40 0
42 -35 40 0
-42 35 40 0
43 41 39 0
43 41 -39 0
43 -41 39 0
-43 41 39 0
31 41 39 0
31 41 -39 0
31 -41 39 0
-31 41 39 0
35 41 32 0
35 41 -32 0
35 -41 32 0
-35 41 32 0
45 33 35 0
45 33 -35 0
45 -33 35 0
-45 33 35 0
32 45 42 0
32 45 -42 0
32 -45 42 0
-32 45 42 0
39 33 35 0
39 33 -35 0
39 -33 35 0
-39 33 35 0
35 40 34 0
35 40 -34 0
35 -40 34 0
-35 40 34 0
42 36 34 0
42 36 -34 0
42 -36 34 0
-42 36 34 0
41 45 35 0
41 45 -35 0
41 -45 35 0
-41 45 35 0
39 38 35 0
39 38 -35 0
39 -38 35 0
-39 38 35 0
45 44 31 0
45 44 -31 0
45 -44 31 0
-45 44 31 0
32 41 37 0
32 41 -37 0
32 -41 37 0
-32 41 37 0
44 35 31 0
44 35 -31 0
44 -35 31 0
-44 35 31 0
31 36 43 0
31 36 -43 0
31 -36 43 0
-31 36 43 0
33 41 35 0
33 41 -35 0
33 -41 35 0
-33 41 35 0
33 42 38 0
33 42 -38 0
33 -42 38 0
-33 42 38 0
39 42 37 0
39 42 -37 0
39 -42 37 0
-39 42 37 0
39 31 32 0
39 31 -32 0
39 -31 32 0
-39 31 32 0
32 42 33 0
32 42 -33 0
32 -42 33 0
-32 42 33 0
39 31 36 0
39 31 -36 0
39 -31 36 0
-39 31 36 0
40 39 33 0
40 39 -33 0
40 -39 33 0
-40 39 33 0
37 33 31 0
37 33 -31 0
37 -33 31 0
-37 33 31 0
35 36 43 0
35 36 -43 0
35 -36 43 0
-35 36 43 0
44 31 36 0
44 31 -36 0
44 -31 36 0
-44 31 36 0
49 56 60 0
49 56 -60 0
49 -56 60 0
-49 56 60 0
56 47 51 0
56 47 -51 0
56 -47 51 0
-56 47 51 0
58 54 52 0
58 54 -52 0
58 -54 52 0
-58 54 52 0
55 57 48 0
55 57 -48 0
55 -57 48 0
-55 57 48 0
60 49 48 0
60 49 -48 0
60 -49 48 0
-60 49 48 0
58 60 48 0
58 60 -48 0
58 -60 48 0
-58 60 48 0
60 52 46 0
60 52 -46 0
60 -52 46 0
-60 52 46 0
48 57 51 0
48 57 -51 0
48 -57 51 0
-48 57 51 0
58 52 60 0
58 52 -60 0
58 -52 60 0
-58 52 60 0
56 59 57 0
56 59 -57 0
56 -59 57 0
-56 59 57 0
58 49 50 0
58 49 -50 0
58 -49 50 0
-58 49 50 0
48 58 57 0
48 58 -57 0
48 -58 57 0
-48 58 57 0
47 52 46 0
47 52 -46 0
47 -52 46 0
-47 52 46 0
59 53 49 0
59 53 -49 0
59 -53 49 0
-59 53 49 0
49 59 53 0
49 59 -53 0
49 -59 53 0
-49 59 53 0
51 50 58 0
51 50 -58 0
51 -50 58 0
-51 50 58 0
59 49 60 0
59 49 -60 0
59 -49 60 0
-59 49 60 0
46 56 49 0
46 56 -49 0
46 -56 49 0
-46 56 49 0
52 51 50 0
52 51 -50 0
52 -51 50 0
-52 51 50 0
59 47 58 0
59 47 -58 0
59 -47 58 0
-59 47 58 0
50 51 56 0
50 51 -56 0
50 -51 56 0
-50 51 56 0
54 52 56 0
54 52 -56 0
54 -52 56 0
-54 52 56 0
59 54 51 0
59 54 -51 0
59 -54 51 0
-59 54 51 0
46 47 50 0
46 47 -50 0
46 -47 50 0
-46 47 50 0
48 55 50 0
48 55 -50 0
48 -55 50 0
-48 55 50 0
46 47 55 0
46 47 -55 0
46 -47 55 0
-46 47 55 0
52 51 57 0
52 51 -57 0
52 -51 57 0
-52 51 57 0
58 51 52 0
58 51 -52 0
58 -51 52 0
-58 51 52 0
55 54 47 0
55 54 -47 0
55 -54 47 0
-55 54 47 0
52 55 49 0
52 55 -49 0
52 -55 49 0
-52 55 49 0
50 46 57 0
50 46 -57 0
50 -46 57 0
-50 46 57 0
52 46 54 0
52 46 -54 0
52 -46 54 0
-52 46 54 0
60 58 54 0
60 58 -54 0
60 -58 54 0
-60 58 54 0
56 57 59 0
56 57 -59 0
56 -57 59 0
-56 57 59 0
57 56 49 0
57 56 -49 0
57 -56 49 0
-57 56 49 0
51 52 47 0
51 52 -47 0
51 -52 47 0
-51 52 47 0
56 51 55 0
56 51 -55 0
56 -51 55 0
-56 51 55 0
51 56 47 0
51 56 -47 0
51 -56 47 0
-51 56 47 0
57 50 54 0
57 50 -54 0
57 -50 54 0
-57 50 54 0
50 56 52 0
50 56 -52 0
50 -56 52 0
-50 56 52 0
51 52 57 0
51 52 -57 0
51 -52 57 0
-51 52 57 0
50 54 48 0
50 54 -48 0
50 -54 48 0
-50 54 48 0
49 52 56 0
49 52 -56 0
49 -52 56 0
-49 52 56 0
52 56 57 0
52 56 -57 0
52 -56 57 0
-52 56 57 0
60 48 55 0
60 48 -55 0
60 -48 55 0
-60 48 55 0
55 50 52 0
55 50 -52 0
55 -50 52 0
-55 50 52 0
54 59 46 0
54 59 -46 0
54 -59 46 0
-54 59 46 0
50 60 49 0
50 60 -49 0
50 -60 49 0
-50 60 49 0
52 58 55 0
52 58 -55 0
52 -58 55 0
-52 58 55 0
55 56 51 0
55 56 -51 0
55 -56 51 0
-55 56 51 0
53 60 59 0
53 60 -59 0
53 -60 59 0
-53 60 59 0
56 49 54 0
56 49 -54 0
56 -49 54 0
-56 49 54 0
53 58 59 0
53 58 -59 0
53 -58 59 0
-53 58 59 0
57 48 56 0
57 48 -56 0
57 -48 56 0
-57 48 56 0
47 50 54 0
47 50 -54 0
47 -50 54 0
-47 50 54 0
56 60 55 0
56 60 -55 0
56 -60 55 0
-56 60 55 0
51 47 58 0
51 47 -58 0
51 -47 58 0
-51 47 58 0
49 56 50 0
49 56 -50 0
49 -56 50 0
-49 56 50 0
49 58 60 0
49 58 -60 0
49 -58 60 0
-49 58 60 0
48 46 59 0
48 46 -59 0
48 -46 59 0
-48 46 59 0
